(set-info :smt-lib-version 2.6)
(set-logic QF_NIA)
(set-info :source |
Generated by: Cristina Borralleras, Daniel Larraz, Albert Oliveras, Enric Rodriguez-Carbonell, Albert Rubio
Generated on: 2017-04-27
Generator: VeryMax
Application: Termination proving
Target solver: barcelogic
|)
(set-info :license "https://creativecommons.org/licenses/by/4.0/")
(set-info :category "industrial")
(set-info :status unknown)
(declare-fun Nl89__disjvr_5^01 () Int)
(declare-fun Nl89copied5^01 () Int)
(declare-fun Nl89var_Le_AFp_2___rho_1_^01 () Int)
(declare-fun Nl89var_Le_AFp_2___rho_2_^01 () Int)
(declare-fun Nl89var_Le_AFp_2_p^01 () Int)
(declare-fun Nl89var_Le_AFp_2_rv_init^01 () Int)
(declare-fun Nl89var_Le_AFp_2_start^01 () Int)
(declare-fun Nl89var_Le_AFp_2_x^01 () Int)
(declare-fun Nl89var_Le_AFp_2_y^01 () Int)
(declare-fun Nl89var_e_AGAFp_0___rho_1_^01 () Int)
(declare-fun Nl89var_e_AGAFp_0___rho_2_^01 () Int)
(declare-fun Nl89var_e_AGAFp_0_p^01 () Int)
(declare-fun Nl89var_e_AGAFp_0_rv_init^01 () Int)
(declare-fun Nl89var_e_AGAFp_0_start^01 () Int)
(declare-fun Nl89var_e_AGAFp_0_x^01 () Int)
(declare-fun Nl89var_e_AGAFp_0_y^01 () Int)
(declare-fun lam0n0 () Int)
(declare-fun lam0n1 () Int)
(declare-fun lam0n2 () Int)
(declare-fun lam0n3 () Int)
(declare-fun lam0n4 () Int)
(declare-fun lam0n5 () Int)
(declare-fun lam0n6 () Int)
(declare-fun lam0n7 () Int)
(declare-fun lam0n8 () Int)
(declare-fun lam0n12 () Int)
(declare-fun lam0n9 () Int)
(declare-fun lam0n10 () Int)
(declare-fun lam0n11 () Int)
(declare-fun Nl89CT1 () Int)
(declare-fun lam1n0 () Int)
(declare-fun lam1n1 () Int)
(declare-fun lam1n2 () Int)
(declare-fun lam1n3 () Int)
(declare-fun lam1n4 () Int)
(declare-fun lam1n5 () Int)
(declare-fun lam1n6 () Int)
(declare-fun lam1n7 () Int)
(declare-fun lam1n8 () Int)
(declare-fun lam1n12 () Int)
(declare-fun lam1n9 () Int)
(declare-fun lam1n10 () Int)
(declare-fun lam1n11 () Int)
(declare-fun lam2n0 () Int)
(declare-fun lam2n4 () Int)
(declare-fun lam2n1 () Int)
(declare-fun lam2n2 () Int)
(declare-fun lam2n3 () Int)
(declare-fun x^0 () Int)
(declare-fun var_e_AGAFp_0_x^0 () Int)
(declare-fun var_e_AGAFp_0_y^0 () Int)
(declare-fun y^0 () Int)
(declare-fun undef22822 () Int)
(declare-fun undef32316 () Int)
(declare-fun __disjvr_5^0 () Int)
(declare-fun var_e_AGAFp_0___rho_1_^0 () Int)
(declare-fun var_e_AGAFp_0___rho_2_^0 () Int)
(declare-fun var_e_AGAFp_0_rv_init^0 () Int)
(declare-fun var_e_AGAFp_0_start^0 () Int)
(declare-fun lam6n0 () Int)
(declare-fun lam6n1 () Int)
(declare-fun lam6n2 () Int)
(declare-fun lam6n3 () Int)
(declare-fun lam6n4 () Int)
(declare-fun lam6n5 () Int)
(declare-fun lam6n6 () Int)
(declare-fun lam6n7 () Int)
(declare-fun lam6n8 () Int)
(declare-fun lam6n9 () Int)
(declare-fun lam6n10 () Int)
(declare-fun lam6n11 () Int)
(declare-fun lam6n12 () Int)
(declare-fun lam6n13 () Int)
(declare-fun lam6n14 () Int)
(declare-fun lam6n18 () Int)
(declare-fun lam6n15 () Int)
(declare-fun lam6n16 () Int)
(declare-fun lam6n17 () Int)
(declare-fun RFN1_CT () Int)
(declare-fun RFN1_copied5^0 () Int)
(declare-fun RFN1_var_Le_AFp_2___rho_1_^0 () Int)
(declare-fun RFN1_var_Le_AFp_2___rho_2_^0 () Int)
(declare-fun RFN1_var_Le_AFp_2_p^0 () Int)
(declare-fun RFN1_var_Le_AFp_2_rv_init^0 () Int)
(declare-fun RFN1_var_Le_AFp_2_start^0 () Int)
(declare-fun RFN1_var_Le_AFp_2_x^0 () Int)
(declare-fun RFN1_var_Le_AFp_2_y^0 () Int)
(declare-fun RFN1_var_e_AGAFp_0_p^0 () Int)
(declare-fun RFN1_var_e_AGAFp_0___rho_1_^0 () Int)
(declare-fun RFN1_var_e_AGAFp_0___rho_2_^0 () Int)
(declare-fun RFN1_var_e_AGAFp_0_rv_init^0 () Int)
(declare-fun RFN1_var_e_AGAFp_0_start^0 () Int)
(declare-fun RFN1_var_e_AGAFp_0_x^0 () Int)
(declare-fun RFN1_var_e_AGAFp_0_y^0 () Int)
(declare-fun lam4n0 () Int)
(declare-fun lam4n1 () Int)
(declare-fun lam4n2 () Int)
(declare-fun lam4n3 () Int)
(declare-fun lam4n4 () Int)
(declare-fun lam4n5 () Int)
(declare-fun lam4n6 () Int)
(declare-fun lam4n7 () Int)
(declare-fun lam4n8 () Int)
(declare-fun lam4n9 () Int)
(declare-fun lam4n10 () Int)
(declare-fun lam4n11 () Int)
(declare-fun lam4n12 () Int)
(declare-fun lam4n13 () Int)
(declare-fun lam4n14 () Int)
(declare-fun lam4n18 () Int)
(declare-fun lam4n15 () Int)
(declare-fun lam4n16 () Int)
(declare-fun lam4n17 () Int)
(declare-fun lam5n0 () Int)
(declare-fun lam5n1 () Int)
(declare-fun lam5n2 () Int)
(declare-fun lam5n3 () Int)
(declare-fun lam5n4 () Int)
(declare-fun lam5n5 () Int)
(declare-fun lam5n6 () Int)
(declare-fun lam5n7 () Int)
(declare-fun lam5n8 () Int)
(declare-fun lam5n9 () Int)
(declare-fun lam5n10 () Int)
(declare-fun lam5n11 () Int)
(declare-fun lam5n12 () Int)
(declare-fun lam5n13 () Int)
(declare-fun lam5n14 () Int)
(declare-fun lam5n18 () Int)
(declare-fun lam5n15 () Int)
(declare-fun lam5n16 () Int)
(declare-fun lam5n17 () Int)
(declare-fun lam3n0 () Int)
(declare-fun lam3n1 () Int)
(declare-fun lam3n2 () Int)
(declare-fun lam3n3 () Int)
(declare-fun lam3n4 () Int)
(declare-fun lam3n5 () Int)
(declare-fun lam3n6 () Int)
(declare-fun lam3n7 () Int)
(declare-fun lam3n8 () Int)
(declare-fun lam3n9 () Int)
(declare-fun lam3n10 () Int)
(declare-fun lam3n11 () Int)
(declare-fun lam3n12 () Int)
(declare-fun lam3n13 () Int)
(declare-fun lam3n14 () Int)
(declare-fun lam3n18 () Int)
(declare-fun lam3n15 () Int)
(declare-fun lam3n16 () Int)
(declare-fun lam3n17 () Int)
(assert ( and ( <= ( - 1 ) Nl89__disjvr_5^01 ) ( <= Nl89__disjvr_5^01 1 ) ( <= ( - 1 ) Nl89copied5^01 ) ( <= Nl89copied5^01 1 ) ( <= ( - 1 ) Nl89var_Le_AFp_2___rho_1_^01 ) ( <= Nl89var_Le_AFp_2___rho_1_^01 1 ) ( <= ( - 1 ) Nl89var_Le_AFp_2___rho_2_^01 ) ( <= Nl89var_Le_AFp_2___rho_2_^01 1 ) ( <= ( - 1 ) Nl89var_Le_AFp_2_p^01 ) ( <= Nl89var_Le_AFp_2_p^01 1 ) ( <= ( - 1 ) Nl89var_Le_AFp_2_rv_init^01 ) ( <= Nl89var_Le_AFp_2_rv_init^01 1 ) ( <= ( - 1 ) Nl89var_Le_AFp_2_start^01 ) ( <= Nl89var_Le_AFp_2_start^01 1 ) ( <= ( - 1 ) Nl89var_Le_AFp_2_x^01 ) ( <= Nl89var_Le_AFp_2_x^01 1 ) ( <= ( - 1 ) Nl89var_Le_AFp_2_y^01 ) ( <= Nl89var_Le_AFp_2_y^01 1 ) ( <= ( - 1 ) Nl89var_e_AGAFp_0___rho_1_^01 ) ( <= Nl89var_e_AGAFp_0___rho_1_^01 1 ) ( <= ( - 1 ) Nl89var_e_AGAFp_0___rho_2_^01 ) ( <= Nl89var_e_AGAFp_0___rho_2_^01 1 ) ( <= ( - 1 ) Nl89var_e_AGAFp_0_p^01 ) ( <= Nl89var_e_AGAFp_0_p^01 1 ) ( <= ( - 1 ) Nl89var_e_AGAFp_0_rv_init^01 ) ( <= Nl89var_e_AGAFp_0_rv_init^01 1 ) ( <= ( - 1 ) Nl89var_e_AGAFp_0_start^01 ) ( <= Nl89var_e_AGAFp_0_start^01 1 ) ( <= ( - 1 ) Nl89var_e_AGAFp_0_x^01 ) ( <= Nl89var_e_AGAFp_0_x^01 1 ) ( <= ( - 1 ) Nl89var_e_AGAFp_0_y^01 ) ( <= Nl89var_e_AGAFp_0_y^01 1 ) ))
(assert ( or ( and ( >= lam0n0 0 ) ( >= lam0n1 0 ) ( >= lam0n2 0 ) ( >= lam0n3 0 ) ( >= lam0n4 0 ) ( >= lam0n5 0 ) ( >= lam0n6 0 ) ( >= lam0n7 0 ) ( >= lam0n8 0 ) ( >= lam0n12 0 ) ( > ( + ( * 1 lam0n2 ) ( * 1 lam0n3 ) ( * 1 lam0n4 ) ( * 1 lam0n5 ) ( * 1 lam0n6 ) ( * ( - 1 ) lam0n7 ) ( * ( - 1 ) lam0n8 ) ( * 1 lam0n9 ) ( * 1 lam0n10 ) ( * ( - 1 ) lam0n11 ) ( * Nl89CT1 lam0n12 ) ( - 1 ) ) 0 ) ( = ( * Nl89__disjvr_5^01 lam0n12 ) 0 ) ( = ( + ( * ( - 1 ) lam0n2 ) ( * 1 lam0n7 ) ( * Nl89copied5^01 lam0n12 ) ) 0 ) ( = ( + ( * ( - 1 ) lam0n7 ) ( * 1 lam0n8 ) ( * Nl89var_Le_AFp_2___rho_1_^01 lam0n12 ) ) 0 ) ( = ( * Nl89var_Le_AFp_2___rho_2_^01 lam0n12 ) 0 ) ( = ( + ( * 1 lam0n0 ) ( * ( - 1 ) lam0n2 ) ( * ( - 1 ) lam0n3 ) ( * ( - 1 ) lam0n4 ) ( * ( - 1 ) lam0n5 ) ( * ( - 1 ) lam0n7 ) ( * ( - 1 ) lam0n8 ) ( * 1 lam0n9 ) ( * Nl89var_Le_AFp_2_p^01 lam0n12 ) ) 0 ) ( = ( + ( * 1 lam0n2 ) ( * Nl89var_Le_AFp_2_rv_init^01 lam0n12 ) ) 0 ) ( = ( + ( * 1 lam0n1 ) ( * ( - 1 ) lam0n2 ) ( * ( - 1 ) lam0n4 ) ( * 1 lam0n8 ) ( * Nl89var_Le_AFp_2_start^01 lam0n12 ) ) 0 ) ( = ( + ( * 1 lam0n1 ) ( * ( - 1 ) lam0n2 ) ( * ( - 1 ) lam0n4 ) ( * ( - 1 ) lam0n7 ) ( * 1 lam0n8 ) ( * Nl89var_Le_AFp_2_x^01 lam0n12 ) ) 0 ) ( = ( * Nl89var_Le_AFp_2_y^01 lam0n12 ) 0 ) ( = ( + ( * 1 lam0n7 ) ( * ( - 1 ) lam0n8 ) ( * Nl89var_e_AGAFp_0___rho_1_^01 lam0n12 ) ) 0 ) ( = ( * Nl89var_e_AGAFp_0___rho_2_^01 lam0n12 ) 0 ) ( = ( + ( * ( - 1 ) lam0n0 ) ( * 1 lam0n4 ) ( * ( - 1 ) lam0n5 ) ( * ( - 1 ) lam0n7 ) ( * 1 lam0n10 ) ( * Nl89var_e_AGAFp_0_p^01 lam0n12 ) ) 0 ) ( = ( + ( * ( - 1 ) lam0n2 ) ( * Nl89var_e_AGAFp_0_rv_init^01 lam0n12 ) ) 0 ) ( = ( + ( * ( - 1 ) lam0n1 ) ( * 1 lam0n2 ) ( * 1 lam0n4 ) ( * ( - 1 ) lam0n8 ) ( * Nl89var_e_AGAFp_0_start^01 lam0n12 ) ) 0 ) ( = ( + ( * ( - 1 ) lam0n1 ) ( * 1 lam0n2 ) ( * ( - 1 ) lam0n5 ) ( * ( - 1 ) lam0n7 ) ( * ( - 1 ) lam0n8 ) ( * Nl89var_e_AGAFp_0_x^01 lam0n12 ) ) 0 ) ( = ( * Nl89var_e_AGAFp_0_y^01 lam0n12 ) 0 ) ( = ( * 1 lam0n11 ) 0 ) ( = ( + ( * ( - 1 ) lam0n6 ) ( * ( - 1 ) lam0n9 ) ) 0 ) ( = ( * ( - 1 ) lam0n10 ) 0 ) ) ( and ( >= lam1n0 0 ) ( >= lam1n1 0 ) ( >= lam1n2 0 ) ( >= lam1n3 0 ) ( >= lam1n4 0 ) ( >= lam1n5 0 ) ( >= lam1n6 0 ) ( >= lam1n7 0 ) ( >= lam1n8 0 ) ( >= lam1n12 0 ) ( > ( + ( * 1 lam1n2 ) ( * 1 lam1n3 ) ( * 1 lam1n4 ) ( * 1 lam1n5 ) ( * 1 lam1n6 ) ( * ( - 1 ) lam1n7 ) ( * ( - 1 ) lam1n8 ) ( * 1 lam1n9 ) ( * 1 lam1n10 ) ( * ( - 1 ) lam1n11 ) ( * Nl89CT1 lam1n12 ) ( - 1 ( + ( + ( + ( + ( + ( + ( + ( + ( + Nl89CT1 ( * Nl89copied5^01 0 ) ) ( * Nl89var_Le_AFp_2___rho_1_^01 0 ) ) ( * Nl89var_Le_AFp_2___rho_2_^01 0 ) ) ( * Nl89var_Le_AFp_2_p^01 0 ) ) ( * Nl89var_Le_AFp_2_rv_init^01 0 ) ) ( * Nl89var_Le_AFp_2_start^01 0 ) ) ( * Nl89var_Le_AFp_2_x^01 0 ) ) ( * Nl89var_Le_AFp_2_y^01 0 ) ) ( * Nl89var_e_AGAFp_0_p^01 0 ) ) ) ) 0 ) ( = ( + ( * Nl89__disjvr_5^01 lam1n12 ) ( - ( + 0 Nl89__disjvr_5^01 ) ) ) 0 ) ( = ( + ( * ( - 1 ) lam1n2 ) ( * 1 lam1n7 ) ( * Nl89copied5^01 lam1n12 ) ) 0 ) ( = ( + ( * ( - 1 ) lam1n7 ) ( * 1 lam1n8 ) ( * Nl89var_Le_AFp_2___rho_1_^01 lam1n12 ) ) 0 ) ( = ( * Nl89var_Le_AFp_2___rho_2_^01 lam1n12 ) 0 ) ( = ( + ( * 1 lam1n0 ) ( * ( - 1 ) lam1n2 ) ( * ( - 1 ) lam1n3 ) ( * ( - 1 ) lam1n4 ) ( * ( - 1 ) lam1n5 ) ( * ( - 1 ) lam1n7 ) ( * ( - 1 ) lam1n8 ) ( * 1 lam1n9 ) ( * Nl89var_Le_AFp_2_p^01 lam1n12 ) ) 0 ) ( = ( + ( * 1 lam1n2 ) ( * Nl89var_Le_AFp_2_rv_init^01 lam1n12 ) ) 0 ) ( = ( + ( * 1 lam1n1 ) ( * ( - 1 ) lam1n2 ) ( * ( - 1 ) lam1n4 ) ( * 1 lam1n8 ) ( * Nl89var_Le_AFp_2_start^01 lam1n12 ) ) 0 ) ( = ( + ( * 1 lam1n1 ) ( * ( - 1 ) lam1n2 ) ( * ( - 1 ) lam1n4 ) ( * ( - 1 ) lam1n7 ) ( * 1 lam1n8 ) ( * Nl89var_Le_AFp_2_x^01 lam1n12 ) ) 0 ) ( = ( * Nl89var_Le_AFp_2_y^01 lam1n12 ) 0 ) ( = ( + ( * 1 lam1n7 ) ( * ( - 1 ) lam1n8 ) ( * Nl89var_e_AGAFp_0___rho_1_^01 lam1n12 ) ( - ( + ( + 0 ( * Nl89var_Le_AFp_2___rho_1_^01 1 ) ) Nl89var_e_AGAFp_0___rho_1_^01 ) ) ) 0 ) ( = ( + ( * Nl89var_e_AGAFp_0___rho_2_^01 lam1n12 ) ( - ( + ( + 0 ( * Nl89var_Le_AFp_2___rho_2_^01 1 ) ) Nl89var_e_AGAFp_0___rho_2_^01 ) ) ) 0 ) ( = ( + ( * ( - 1 ) lam1n0 ) ( * 1 lam1n4 ) ( * ( - 1 ) lam1n5 ) ( * ( - 1 ) lam1n7 ) ( * 1 lam1n10 ) ( * Nl89var_e_AGAFp_0_p^01 lam1n12 ) ) 0 ) ( = ( + ( * ( - 1 ) lam1n2 ) ( * Nl89var_e_AGAFp_0_rv_init^01 lam1n12 ) ( - ( + ( + 0 ( * Nl89var_Le_AFp_2_rv_init^01 1 ) ) Nl89var_e_AGAFp_0_rv_init^01 ) ) ) 0 ) ( = ( + ( * ( - 1 ) lam1n1 ) ( * 1 lam1n2 ) ( * 1 lam1n4 ) ( * ( - 1 ) lam1n8 ) ( * Nl89var_e_AGAFp_0_start^01 lam1n12 ) ( - ( + ( + 0 ( * Nl89var_Le_AFp_2_start^01 1 ) ) Nl89var_e_AGAFp_0_start^01 ) ) ) 0 ) ( = ( + ( * ( - 1 ) lam1n1 ) ( * 1 lam1n2 ) ( * ( - 1 ) lam1n5 ) ( * ( - 1 ) lam1n7 ) ( * ( - 1 ) lam1n8 ) ( * Nl89var_e_AGAFp_0_x^01 lam1n12 ) ( - ( + ( + 0 ( * Nl89var_Le_AFp_2_x^01 1 ) ) Nl89var_e_AGAFp_0_x^01 ) ) ) 0 ) ( = ( + ( * Nl89var_e_AGAFp_0_y^01 lam1n12 ) ( - ( + ( + 0 ( * Nl89var_Le_AFp_2_y^01 1 ) ) Nl89var_e_AGAFp_0_y^01 ) ) ) 0 ) ( = ( * 1 lam1n11 ) 0 ) ( = ( + ( * ( - 1 ) lam1n6 ) ( * ( - 1 ) lam1n9 ) ) 0 ) ( = ( + ( * ( - 1 ) lam1n10 ) ( - ( + ( + 0 ( * Nl89var_Le_AFp_2_p^01 1 ) ) ( * Nl89var_e_AGAFp_0_p^01 1 ) ) ) ) 0 ) ) ))
(assert ( and ( <= ( + 1 ( * ( - 1 ) x^0 ) ) 0 ) ( = ( + var_e_AGAFp_0_x^0 ( * ( - 1 ) x^0 ) ) 0 ) ( = ( + var_e_AGAFp_0_y^0 ( * ( - 1 ) y^0 ) ) 0 ) ( = undef22822 0 ) ( = ( + 1 undef22822 ( * ( - 1 ) undef32316 ) ) 0 ) ( <= ( + ( + ( + ( + ( + ( + ( + ( + ( + ( + Nl89CT1 ( * Nl89copied5^01 0 ) ) ( * Nl89var_Le_AFp_2___rho_1_^01 0 ) ) ( * Nl89var_Le_AFp_2___rho_2_^01 0 ) ) ( * Nl89var_Le_AFp_2_p^01 0 ) ) ( * Nl89var_Le_AFp_2_rv_init^01 0 ) ) ( * Nl89var_Le_AFp_2_start^01 0 ) ) ( * Nl89var_Le_AFp_2_x^01 0 ) ) ( * Nl89var_Le_AFp_2_y^01 0 ) ) ( * Nl89var_e_AGAFp_0_p^01 0 ) ) ( * ( + 0 Nl89__disjvr_5^01 ) __disjvr_5^0 ) ( * ( + ( + 0 ( * Nl89var_Le_AFp_2___rho_1_^01 1 ) ) Nl89var_e_AGAFp_0___rho_1_^01 ) var_e_AGAFp_0___rho_1_^0 ) ( * ( + ( + 0 ( * Nl89var_Le_AFp_2___rho_2_^01 1 ) ) Nl89var_e_AGAFp_0___rho_2_^01 ) var_e_AGAFp_0___rho_2_^0 ) ( * ( + ( + 0 ( * Nl89var_Le_AFp_2_rv_init^01 1 ) ) Nl89var_e_AGAFp_0_rv_init^01 ) var_e_AGAFp_0_rv_init^0 ) ( * ( + ( + 0 ( * Nl89var_Le_AFp_2_start^01 1 ) ) Nl89var_e_AGAFp_0_start^01 ) var_e_AGAFp_0_start^0 ) ( * ( + 0 Nl89var_e_AGAFp_0_x^01 ) var_e_AGAFp_0_x^0 ) ( * ( + 0 Nl89var_e_AGAFp_0_y^01 ) var_e_AGAFp_0_y^0 ) ( * ( + 0 ( * Nl89var_Le_AFp_2_x^01 1 ) ) x^0 ) ( * ( + 0 ( * Nl89var_Le_AFp_2_y^01 1 ) ) y^0 ) ( * ( + ( + 0 ( * Nl89var_Le_AFp_2_p^01 1 ) ) ( * Nl89var_e_AGAFp_0_p^01 1 ) ) undef32316 ) ) 0 ) ( <= 0 0 ) ( <= ( + 1 ( * ( - 1 ) undef32316 ) ) 0 ) ( <= ( + ( - 1 ) ( * ( - 1 ) var_e_AGAFp_0_x^0 ) x^0 ( * ( - 1 ) undef32316 ) ) 0 ) ( <= ( + ( * ( - 1 ) var_e_AGAFp_0_x^0 ) x^0 ) 0 ) ( <= ( + 1 var_e_AGAFp_0_x^0 ( * ( - 1 ) x^0 ) ( * ( - 1 ) undef32316 ) ) 0 ) ( <= ( + 1 ( * ( - 1 ) x^0 ) ) 0 ) ( <= ( + 1 ( * ( - 1 ) var_e_AGAFp_0_x^0 ) ( * ( - 2 ) undef32316 ) ) 0 ) ( <= ( + ( - 1 ) ( * ( - 1 ) var_e_AGAFp_0_x^0 ) ( * ( - 1 ) x^0 ) ( * ( - 2 ) undef32316 ) ) 0 ) ))
(assert ( or ( and ( and ( >= lam6n0 0 ) ( >= lam6n1 0 ) ( >= lam6n2 0 ) ( >= lam6n3 0 ) ( >= lam6n4 0 ) ( >= lam6n5 0 ) ( >= lam6n6 0 ) ( >= lam6n7 0 ) ( >= lam6n8 0 ) ( >= lam6n9 0 ) ( >= lam6n10 0 ) ( >= lam6n11 0 ) ( >= lam6n12 0 ) ( >= lam6n13 0 ) ( >= lam6n14 0 ) ( >= lam6n18 0 ) ( > ( + ( * 1 lam6n2 ) ( * 1 lam6n3 ) ( * 1 lam6n4 ) ( * 1 lam6n5 ) ( * 1 lam6n6 ) ( * ( - 1 ) lam6n7 ) ( * ( - 1 ) lam6n8 ) ( * 50001 lam6n9 ) ( * 50001 lam6n10 ) ( * 50001 lam6n11 ) ( * 50001 lam6n12 ) ( * 50001 lam6n13 ) ( * 50001 lam6n14 ) ( * 1 lam6n15 ) ( * 1 lam6n16 ) ( * ( - 1 ) lam6n17 ) ( * Nl89CT1 lam6n18 ) ( - 1 ( - ( + ( + ( + ( + ( + ( + ( + ( + ( + RFN1_CT ( * RFN1_copied5^0 0 ) ) ( * RFN1_var_Le_AFp_2___rho_1_^0 0 ) ) ( * RFN1_var_Le_AFp_2___rho_2_^0 0 ) ) ( * RFN1_var_Le_AFp_2_p^0 0 ) ) ( * RFN1_var_Le_AFp_2_rv_init^0 0 ) ) ( * RFN1_var_Le_AFp_2_start^0 0 ) ) ( * RFN1_var_Le_AFp_2_x^0 0 ) ) ( * RFN1_var_Le_AFp_2_y^0 0 ) ) ( * RFN1_var_e_AGAFp_0_p^0 0 ) ) RFN1_CT ) ) ) 0 ) ( = ( * Nl89__disjvr_5^01 lam6n18 ) 0 ) ( = ( + ( * ( - 1 ) lam6n2 ) ( * 1 lam6n7 ) ( * Nl89copied5^01 lam6n18 ) ( - ( - RFN1_copied5^0 ) ) ) 0 ) ( = ( + ( * ( - 1 ) lam6n7 ) ( * 1 lam6n8 ) ( * Nl89var_Le_AFp_2___rho_1_^01 lam6n18 ) ( - ( - RFN1_var_Le_AFp_2___rho_1_^0 ) ) ) 0 ) ( = ( + ( * Nl89var_Le_AFp_2___rho_2_^01 lam6n18 ) ( - ( - RFN1_var_Le_AFp_2___rho_2_^0 ) ) ) 0 ) ( = ( + ( * 1 lam6n0 ) ( * ( - 1 ) lam6n2 ) ( * ( - 1 ) lam6n3 ) ( * ( - 1 ) lam6n4 ) ( * ( - 1 ) lam6n5 ) ( * ( - 1 ) lam6n7 ) ( * ( - 1 ) lam6n8 ) ( * ( - 1 ) lam6n9 ) ( * ( - 2 ) lam6n10 ) ( * ( - 2 ) lam6n11 ) ( * ( - 2 ) lam6n12 ) ( * ( - 2 ) lam6n13 ) ( * 1 lam6n15 ) ( * Nl89var_Le_AFp_2_p^01 lam6n18 ) ( - ( - RFN1_var_Le_AFp_2_p^0 ) ) ) 0 ) ( = ( + ( * 1 lam6n2 ) ( * Nl89var_Le_AFp_2_rv_init^01 lam6n18 ) ( - ( - RFN1_var_Le_AFp_2_rv_init^0 ) ) ) 0 ) ( = ( + ( * 1 lam6n1 ) ( * ( - 1 ) lam6n2 ) ( * ( - 1 ) lam6n4 ) ( * 1 lam6n8 ) ( * ( - 1 ) lam6n10 ) ( * ( - 1 ) lam6n11 ) ( * ( - 4 ) lam6n12 ) ( * ( - 3 ) lam6n14 ) ( * Nl89var_Le_AFp_2_start^01 lam6n18 ) ( - ( - RFN1_var_Le_AFp_2_start^0 ) ) ) 0 ) ( = ( + ( * 1 lam6n1 ) ( * ( - 1 ) lam6n2 ) ( * ( - 1 ) lam6n4 ) ( * ( - 1 ) lam6n7 ) ( * 1 lam6n8 ) ( * ( - 1 ) lam6n10 ) ( * ( - 1 ) lam6n11 ) ( * ( - 4 ) lam6n12 ) ( * ( - 3 ) lam6n14 ) ( * Nl89var_Le_AFp_2_x^01 lam6n18 ) ( - ( - RFN1_var_Le_AFp_2_x^0 ) ) ) 0 ) ( = ( + ( * Nl89var_Le_AFp_2_y^01 lam6n18 ) ( - ( - RFN1_var_Le_AFp_2_y^0 ) ) ) 0 ) ( = ( + ( * 1 lam6n7 ) ( * ( - 1 ) lam6n8 ) ( * ( - 1 ) lam6n9 ) ( * 1 lam6n10 ) ( * 1 lam6n11 ) ( * 3 lam6n12 ) ( * ( - 1 ) lam6n13 ) ( * 2 lam6n14 ) ( * Nl89var_e_AGAFp_0___rho_1_^01 lam6n18 ) ( - ( - ( + ( + 0 ( * RFN1_var_Le_AFp_2___rho_1_^0 1 ) ) RFN1_var_e_AGAFp_0___rho_1_^0 ) RFN1_var_e_AGAFp_0___rho_1_^0 ) ) ) 0 ) ( = ( + ( * 1 lam6n12 ) ( * Nl89var_e_AGAFp_0___rho_2_^01 lam6n18 ) ( - ( - ( + ( + 0 ( * RFN1_var_Le_AFp_2___rho_2_^0 1 ) ) RFN1_var_e_AGAFp_0___rho_2_^0 ) RFN1_var_e_AGAFp_0___rho_2_^0 ) ) ) 0 ) ( = ( + ( * ( - 1 ) lam6n0 ) ( * 1 lam6n4 ) ( * ( - 1 ) lam6n5 ) ( * ( - 1 ) lam6n7 ) ( * 1 lam6n10 ) ( * 1 lam6n11 ) ( * 1 lam6n12 ) ( * 1 lam6n13 ) ( * ( - 1 ) lam6n14 ) ( * 1 lam6n16 ) ( * Nl89var_e_AGAFp_0_p^01 lam6n18 ) ( - ( - RFN1_var_e_AGAFp_0_p^0 ) ) ) 0 ) ( = ( + ( * ( - 1 ) lam6n2 ) ( * 1 lam6n10 ) ( * ( - 1 ) lam6n12 ) ( * Nl89var_e_AGAFp_0_rv_init^01 lam6n18 ) ( - ( - ( + ( + 0 ( * RFN1_var_Le_AFp_2_rv_init^0 1 ) ) RFN1_var_e_AGAFp_0_rv_init^0 ) RFN1_var_e_AGAFp_0_rv_init^0 ) ) ) 0 ) ( = ( + ( * ( - 1 ) lam6n1 ) ( * 1 lam6n2 ) ( * 1 lam6n4 ) ( * ( - 1 ) lam6n8 ) ( * ( - 1 ) lam6n9 ) ( * 2 lam6n10 ) ( * 2 lam6n11 ) ( * 1 lam6n12 ) ( * ( - 1 ) lam6n13 ) ( * 5 lam6n14 ) ( * Nl89var_e_AGAFp_0_start^01 lam6n18 ) ( - ( - ( + ( + 0 ( * RFN1_var_Le_AFp_2_start^0 1 ) ) RFN1_var_e_AGAFp_0_start^0 ) RFN1_var_e_AGAFp_0_start^0 ) ) ) 0 ) ( = ( + ( * ( - 1 ) lam6n1 ) ( * 1 lam6n2 ) ( * ( - 1 ) lam6n5 ) ( * ( - 1 ) lam6n7 ) ( * ( - 1 ) lam6n8 ) ( * ( - 1 ) lam6n9 ) ( * 1 lam6n10 ) ( * 1 lam6n11 ) ( * 1 lam6n12 ) ( * ( - 1 ) lam6n13 ) ( * 5 lam6n14 ) ( * Nl89var_e_AGAFp_0_x^01 lam6n18 ) ( - ( - ( + ( + 0 ( * RFN1_var_Le_AFp_2_x^0 1 ) ) RFN1_var_e_AGAFp_0_x^0 ) RFN1_var_e_AGAFp_0_x^0 ) ) ) 0 ) ( = ( + ( * 1 lam6n12 ) ( * Nl89var_e_AGAFp_0_y^01 lam6n18 ) ( - ( - ( + ( + 0 ( * RFN1_var_Le_AFp_2_y^0 1 ) ) RFN1_var_e_AGAFp_0_y^0 ) RFN1_var_e_AGAFp_0_y^0 ) ) ) 0 ) ( = ( * 1 lam6n17 ) 0 ) ( = ( + ( * ( - 1 ) lam6n6 ) ( * ( - 1 ) lam6n15 ) ) 0 ) ( = ( + ( * ( - 1 ) lam6n16 ) ( - ( + ( + 0 ( * RFN1_var_Le_AFp_2_p^0 1 ) ) ( * RFN1_var_e_AGAFp_0_p^0 1 ) ) ) ) 0 ) ) ( and ( and ( >= lam4n0 0 ) ( >= lam4n1 0 ) ( >= lam4n2 0 ) ( >= lam4n3 0 ) ( >= lam4n4 0 ) ( >= lam4n5 0 ) ( >= lam4n6 0 ) ( >= lam4n7 0 ) ( >= lam4n8 0 ) ( >= lam4n9 0 ) ( >= lam4n10 0 ) ( >= lam4n11 0 ) ( >= lam4n12 0 ) ( >= lam4n13 0 ) ( >= lam4n14 0 ) ( >= lam4n18 0 ) ( > ( + ( * 1 lam4n2 ) ( * 1 lam4n3 ) ( * 1 lam4n4 ) ( * 1 lam4n5 ) ( * 1 lam4n6 ) ( * ( - 1 ) lam4n7 ) ( * ( - 1 ) lam4n8 ) ( * 50001 lam4n9 ) ( * 50001 lam4n10 ) ( * 50001 lam4n11 ) ( * 50001 lam4n12 ) ( * 50001 lam4n13 ) ( * 50001 lam4n14 ) ( * 1 lam4n15 ) ( * 1 lam4n16 ) ( * ( - 1 ) lam4n17 ) ( * Nl89CT1 lam4n18 ) ( - 1 ( - RFN1_CT ) ) ) 0 ) ( = ( * Nl89__disjvr_5^01 lam4n18 ) 0 ) ( = ( + ( * ( - 1 ) lam4n2 ) ( * 1 lam4n7 ) ( * Nl89copied5^01 lam4n18 ) ( - ( - RFN1_copied5^0 ) ) ) 0 ) ( = ( + ( * ( - 1 ) lam4n7 ) ( * 1 lam4n8 ) ( * Nl89var_Le_AFp_2___rho_1_^01 lam4n18 ) ( - ( - RFN1_var_Le_AFp_2___rho_1_^0 ) ) ) 0 ) ( = ( + ( * Nl89var_Le_AFp_2___rho_2_^01 lam4n18 ) ( - ( - RFN1_var_Le_AFp_2___rho_2_^0 ) ) ) 0 ) ( = ( + ( * 1 lam4n0 ) ( * ( - 1 ) lam4n2 ) ( * ( - 1 ) lam4n3 ) ( * ( - 1 ) lam4n4 ) ( * ( - 1 ) lam4n5 ) ( * ( - 1 ) lam4n7 ) ( * ( - 1 ) lam4n8 ) ( * ( - 1 ) lam4n9 ) ( * ( - 2 ) lam4n10 ) ( * ( - 2 ) lam4n11 ) ( * ( - 2 ) lam4n12 ) ( * ( - 2 ) lam4n13 ) ( * 1 lam4n15 ) ( * Nl89var_Le_AFp_2_p^01 lam4n18 ) ( - ( - RFN1_var_Le_AFp_2_p^0 ) ) ) 0 ) ( = ( + ( * 1 lam4n2 ) ( * Nl89var_Le_AFp_2_rv_init^01 lam4n18 ) ( - ( - RFN1_var_Le_AFp_2_rv_init^0 ) ) ) 0 ) ( = ( + ( * 1 lam4n1 ) ( * ( - 1 ) lam4n2 ) ( * ( - 1 ) lam4n4 ) ( * 1 lam4n8 ) ( * ( - 1 ) lam4n10 ) ( * ( - 1 ) lam4n11 ) ( * ( - 4 ) lam4n12 ) ( * ( - 3 ) lam4n14 ) ( * Nl89var_Le_AFp_2_start^01 lam4n18 ) ( - ( - RFN1_var_Le_AFp_2_start^0 ) ) ) 0 ) ( = ( + ( * 1 lam4n1 ) ( * ( - 1 ) lam4n2 ) ( * ( - 1 ) lam4n4 ) ( * ( - 1 ) lam4n7 ) ( * 1 lam4n8 ) ( * ( - 1 ) lam4n10 ) ( * ( - 1 ) lam4n11 ) ( * ( - 4 ) lam4n12 ) ( * ( - 3 ) lam4n14 ) ( * Nl89var_Le_AFp_2_x^01 lam4n18 ) ( - ( - RFN1_var_Le_AFp_2_x^0 ) ) ) 0 ) ( = ( + ( * Nl89var_Le_AFp_2_y^01 lam4n18 ) ( - ( - RFN1_var_Le_AFp_2_y^0 ) ) ) 0 ) ( = ( + ( * 1 lam4n7 ) ( * ( - 1 ) lam4n8 ) ( * ( - 1 ) lam4n9 ) ( * 1 lam4n10 ) ( * 1 lam4n11 ) ( * 3 lam4n12 ) ( * ( - 1 ) lam4n13 ) ( * 2 lam4n14 ) ( * Nl89var_e_AGAFp_0___rho_1_^01 lam4n18 ) ( - ( - RFN1_var_e_AGAFp_0___rho_1_^0 ) ) ) 0 ) ( = ( + ( * 1 lam4n12 ) ( * Nl89var_e_AGAFp_0___rho_2_^01 lam4n18 ) ( - ( - RFN1_var_e_AGAFp_0___rho_2_^0 ) ) ) 0 ) ( = ( + ( * ( - 1 ) lam4n0 ) ( * 1 lam4n4 ) ( * ( - 1 ) lam4n5 ) ( * ( - 1 ) lam4n7 ) ( * 1 lam4n10 ) ( * 1 lam4n11 ) ( * 1 lam4n12 ) ( * 1 lam4n13 ) ( * ( - 1 ) lam4n14 ) ( * 1 lam4n16 ) ( * Nl89var_e_AGAFp_0_p^01 lam4n18 ) ( - ( - RFN1_var_e_AGAFp_0_p^0 ) ) ) 0 ) ( = ( + ( * ( - 1 ) lam4n2 ) ( * 1 lam4n10 ) ( * ( - 1 ) lam4n12 ) ( * Nl89var_e_AGAFp_0_rv_init^01 lam4n18 ) ( - ( - RFN1_var_e_AGAFp_0_rv_init^0 ) ) ) 0 ) ( = ( + ( * ( - 1 ) lam4n1 ) ( * 1 lam4n2 ) ( * 1 lam4n4 ) ( * ( - 1 ) lam4n8 ) ( * ( - 1 ) lam4n9 ) ( * 2 lam4n10 ) ( * 2 lam4n11 ) ( * 1 lam4n12 ) ( * ( - 1 ) lam4n13 ) ( * 5 lam4n14 ) ( * Nl89var_e_AGAFp_0_start^01 lam4n18 ) ( - ( - RFN1_var_e_AGAFp_0_start^0 ) ) ) 0 ) ( = ( + ( * ( - 1 ) lam4n1 ) ( * 1 lam4n2 ) ( * ( - 1 ) lam4n5 ) ( * ( - 1 ) lam4n7 ) ( * ( - 1 ) lam4n8 ) ( * ( - 1 ) lam4n9 ) ( * 1 lam4n10 ) ( * 1 lam4n11 ) ( * 1 lam4n12 ) ( * ( - 1 ) lam4n13 ) ( * 5 lam4n14 ) ( * Nl89var_e_AGAFp_0_x^01 lam4n18 ) ( - ( - RFN1_var_e_AGAFp_0_x^0 ) ) ) 0 ) ( = ( + ( * 1 lam4n12 ) ( * Nl89var_e_AGAFp_0_y^01 lam4n18 ) ( - ( - RFN1_var_e_AGAFp_0_y^0 ) ) ) 0 ) ( = ( * 1 lam4n17 ) 0 ) ( = ( + ( * ( - 1 ) lam4n6 ) ( * ( - 1 ) lam4n15 ) ) 0 ) ( = ( * ( - 1 ) lam4n16 ) 0 ) ) ( and ( >= lam5n0 0 ) ( >= lam5n1 0 ) ( >= lam5n2 0 ) ( >= lam5n3 0 ) ( >= lam5n4 0 ) ( >= lam5n5 0 ) ( >= lam5n6 0 ) ( >= lam5n7 0 ) ( >= lam5n8 0 ) ( >= lam5n9 0 ) ( >= lam5n10 0 ) ( >= lam5n11 0 ) ( >= lam5n12 0 ) ( >= lam5n13 0 ) ( >= lam5n14 0 ) ( >= lam5n18 0 ) ( > ( + ( * 1 lam5n2 ) ( * 1 lam5n3 ) ( * 1 lam5n4 ) ( * 1 lam5n5 ) ( * 1 lam5n6 ) ( * ( - 1 ) lam5n7 ) ( * ( - 1 ) lam5n8 ) ( * 50001 lam5n9 ) ( * 50001 lam5n10 ) ( * 50001 lam5n11 ) ( * 50001 lam5n12 ) ( * 50001 lam5n13 ) ( * 50001 lam5n14 ) ( * 1 lam5n15 ) ( * 1 lam5n16 ) ( * ( - 1 ) lam5n17 ) ( * Nl89CT1 lam5n18 ) ( - 1 ( + ( - ( + ( + ( + ( + ( + ( + ( + ( + ( + RFN1_CT ( * RFN1_copied5^0 0 ) ) ( * RFN1_var_Le_AFp_2___rho_1_^0 0 ) ) ( * RFN1_var_Le_AFp_2___rho_2_^0 0 ) ) ( * RFN1_var_Le_AFp_2_p^0 0 ) ) ( * RFN1_var_Le_AFp_2_rv_init^0 0 ) ) ( * RFN1_var_Le_AFp_2_start^0 0 ) ) ( * RFN1_var_Le_AFp_2_x^0 0 ) ) ( * RFN1_var_Le_AFp_2_y^0 0 ) ) ( * RFN1_var_e_AGAFp_0_p^0 0 ) ) RFN1_CT ) 1 ) ) ) 0 ) ( = ( * Nl89__disjvr_5^01 lam5n18 ) 0 ) ( = ( + ( * ( - 1 ) lam5n2 ) ( * 1 lam5n7 ) ( * Nl89copied5^01 lam5n18 ) ( - ( - RFN1_copied5^0 ) ) ) 0 ) ( = ( + ( * ( - 1 ) lam5n7 ) ( * 1 lam5n8 ) ( * Nl89var_Le_AFp_2___rho_1_^01 lam5n18 ) ( - ( - RFN1_var_Le_AFp_2___rho_1_^0 ) ) ) 0 ) ( = ( + ( * Nl89var_Le_AFp_2___rho_2_^01 lam5n18 ) ( - ( - RFN1_var_Le_AFp_2___rho_2_^0 ) ) ) 0 ) ( = ( + ( * 1 lam5n0 ) ( * ( - 1 ) lam5n2 ) ( * ( - 1 ) lam5n3 ) ( * ( - 1 ) lam5n4 ) ( * ( - 1 ) lam5n5 ) ( * ( - 1 ) lam5n7 ) ( * ( - 1 ) lam5n8 ) ( * ( - 1 ) lam5n9 ) ( * ( - 2 ) lam5n10 ) ( * ( - 2 ) lam5n11 ) ( * ( - 2 ) lam5n12 ) ( * ( - 2 ) lam5n13 ) ( * 1 lam5n15 ) ( * Nl89var_Le_AFp_2_p^01 lam5n18 ) ( - ( - RFN1_var_Le_AFp_2_p^0 ) ) ) 0 ) ( = ( + ( * 1 lam5n2 ) ( * Nl89var_Le_AFp_2_rv_init^01 lam5n18 ) ( - ( - RFN1_var_Le_AFp_2_rv_init^0 ) ) ) 0 ) ( = ( + ( * 1 lam5n1 ) ( * ( - 1 ) lam5n2 ) ( * ( - 1 ) lam5n4 ) ( * 1 lam5n8 ) ( * ( - 1 ) lam5n10 ) ( * ( - 1 ) lam5n11 ) ( * ( - 4 ) lam5n12 ) ( * ( - 3 ) lam5n14 ) ( * Nl89var_Le_AFp_2_start^01 lam5n18 ) ( - ( - RFN1_var_Le_AFp_2_start^0 ) ) ) 0 ) ( = ( + ( * 1 lam5n1 ) ( * ( - 1 ) lam5n2 ) ( * ( - 1 ) lam5n4 ) ( * ( - 1 ) lam5n7 ) ( * 1 lam5n8 ) ( * ( - 1 ) lam5n10 ) ( * ( - 1 ) lam5n11 ) ( * ( - 4 ) lam5n12 ) ( * ( - 3 ) lam5n14 ) ( * Nl89var_Le_AFp_2_x^01 lam5n18 ) ( - ( - RFN1_var_Le_AFp_2_x^0 ) ) ) 0 ) ( = ( + ( * Nl89var_Le_AFp_2_y^01 lam5n18 ) ( - ( - RFN1_var_Le_AFp_2_y^0 ) ) ) 0 ) ( = ( + ( * 1 lam5n7 ) ( * ( - 1 ) lam5n8 ) ( * ( - 1 ) lam5n9 ) ( * 1 lam5n10 ) ( * 1 lam5n11 ) ( * 3 lam5n12 ) ( * ( - 1 ) lam5n13 ) ( * 2 lam5n14 ) ( * Nl89var_e_AGAFp_0___rho_1_^01 lam5n18 ) ( - ( - ( + ( + 0 ( * RFN1_var_Le_AFp_2___rho_1_^0 1 ) ) RFN1_var_e_AGAFp_0___rho_1_^0 ) RFN1_var_e_AGAFp_0___rho_1_^0 ) ) ) 0 ) ( = ( + ( * 1 lam5n12 ) ( * Nl89var_e_AGAFp_0___rho_2_^01 lam5n18 ) ( - ( - ( + ( + 0 ( * RFN1_var_Le_AFp_2___rho_2_^0 1 ) ) RFN1_var_e_AGAFp_0___rho_2_^0 ) RFN1_var_e_AGAFp_0___rho_2_^0 ) ) ) 0 ) ( = ( + ( * ( - 1 ) lam5n0 ) ( * 1 lam5n4 ) ( * ( - 1 ) lam5n5 ) ( * ( - 1 ) lam5n7 ) ( * 1 lam5n10 ) ( * 1 lam5n11 ) ( * 1 lam5n12 ) ( * 1 lam5n13 ) ( * ( - 1 ) lam5n14 ) ( * 1 lam5n16 ) ( * Nl89var_e_AGAFp_0_p^01 lam5n18 ) ( - ( - RFN1_var_e_AGAFp_0_p^0 ) ) ) 0 ) ( = ( + ( * ( - 1 ) lam5n2 ) ( * 1 lam5n10 ) ( * ( - 1 ) lam5n12 ) ( * Nl89var_e_AGAFp_0_rv_init^01 lam5n18 ) ( - ( - ( + ( + 0 ( * RFN1_var_Le_AFp_2_rv_init^0 1 ) ) RFN1_var_e_AGAFp_0_rv_init^0 ) RFN1_var_e_AGAFp_0_rv_init^0 ) ) ) 0 ) ( = ( + ( * ( - 1 ) lam5n1 ) ( * 1 lam5n2 ) ( * 1 lam5n4 ) ( * ( - 1 ) lam5n8 ) ( * ( - 1 ) lam5n9 ) ( * 2 lam5n10 ) ( * 2 lam5n11 ) ( * 1 lam5n12 ) ( * ( - 1 ) lam5n13 ) ( * 5 lam5n14 ) ( * Nl89var_e_AGAFp_0_start^01 lam5n18 ) ( - ( - ( + ( + 0 ( * RFN1_var_Le_AFp_2_start^0 1 ) ) RFN1_var_e_AGAFp_0_start^0 ) RFN1_var_e_AGAFp_0_start^0 ) ) ) 0 ) ( = ( + ( * ( - 1 ) lam5n1 ) ( * 1 lam5n2 ) ( * ( - 1 ) lam5n5 ) ( * ( - 1 ) lam5n7 ) ( * ( - 1 ) lam5n8 ) ( * ( - 1 ) lam5n9 ) ( * 1 lam5n10 ) ( * 1 lam5n11 ) ( * 1 lam5n12 ) ( * ( - 1 ) lam5n13 ) ( * 5 lam5n14 ) ( * Nl89var_e_AGAFp_0_x^01 lam5n18 ) ( - ( - ( + ( + 0 ( * RFN1_var_Le_AFp_2_x^0 1 ) ) RFN1_var_e_AGAFp_0_x^0 ) RFN1_var_e_AGAFp_0_x^0 ) ) ) 0 ) ( = ( + ( * 1 lam5n12 ) ( * Nl89var_e_AGAFp_0_y^01 lam5n18 ) ( - ( - ( + ( + 0 ( * RFN1_var_Le_AFp_2_y^0 1 ) ) RFN1_var_e_AGAFp_0_y^0 ) RFN1_var_e_AGAFp_0_y^0 ) ) ) 0 ) ( = ( * 1 lam5n17 ) 0 ) ( = ( + ( * ( - 1 ) lam5n6 ) ( * ( - 1 ) lam5n15 ) ) 0 ) ( = ( + ( * ( - 1 ) lam5n16 ) ( - ( + ( + 0 ( * RFN1_var_Le_AFp_2_p^0 1 ) ) ( * RFN1_var_e_AGAFp_0_p^0 1 ) ) ) ) 0 ) ) ) ) ( and ( >= lam3n0 0 ) ( >= lam3n1 0 ) ( >= lam3n2 0 ) ( >= lam3n3 0 ) ( >= lam3n4 0 ) ( >= lam3n5 0 ) ( >= lam3n6 0 ) ( >= lam3n7 0 ) ( >= lam3n8 0 ) ( >= lam3n9 0 ) ( >= lam3n10 0 ) ( >= lam3n11 0 ) ( >= lam3n12 0 ) ( >= lam3n13 0 ) ( >= lam3n14 0 ) ( >= lam3n18 0 ) ( > ( + ( * 1 lam3n2 ) ( * 1 lam3n3 ) ( * 1 lam3n4 ) ( * 1 lam3n5 ) ( * 1 lam3n6 ) ( * ( - 1 ) lam3n7 ) ( * ( - 1 ) lam3n8 ) ( * 50001 lam3n9 ) ( * 50001 lam3n10 ) ( * 50001 lam3n11 ) ( * 50001 lam3n12 ) ( * 50001 lam3n13 ) ( * 50001 lam3n14 ) ( * 1 lam3n15 ) ( * 1 lam3n16 ) ( * ( - 1 ) lam3n17 ) ( * Nl89CT1 lam3n18 ) ( - 1 ) ) 0 ) ( = ( * Nl89__disjvr_5^01 lam3n18 ) 0 ) ( = ( + ( * ( - 1 ) lam3n2 ) ( * 1 lam3n7 ) ( * Nl89copied5^01 lam3n18 ) ) 0 ) ( = ( + ( * ( - 1 ) lam3n7 ) ( * 1 lam3n8 ) ( * Nl89var_Le_AFp_2___rho_1_^01 lam3n18 ) ) 0 ) ( = ( * Nl89var_Le_AFp_2___rho_2_^01 lam3n18 ) 0 ) ( = ( + ( * 1 lam3n0 ) ( * ( - 1 ) lam3n2 ) ( * ( - 1 ) lam3n3 ) ( * ( - 1 ) lam3n4 ) ( * ( - 1 ) lam3n5 ) ( * ( - 1 ) lam3n7 ) ( * ( - 1 ) lam3n8 ) ( * ( - 1 ) lam3n9 ) ( * ( - 2 ) lam3n10 ) ( * ( - 2 ) lam3n11 ) ( * ( - 2 ) lam3n12 ) ( * ( - 2 ) lam3n13 ) ( * 1 lam3n15 ) ( * Nl89var_Le_AFp_2_p^01 lam3n18 ) ) 0 ) ( = ( + ( * 1 lam3n2 ) ( * Nl89var_Le_AFp_2_rv_init^01 lam3n18 ) ) 0 ) ( = ( + ( * 1 lam3n1 ) ( * ( - 1 ) lam3n2 ) ( * ( - 1 ) lam3n4 ) ( * 1 lam3n8 ) ( * ( - 1 ) lam3n10 ) ( * ( - 1 ) lam3n11 ) ( * ( - 4 ) lam3n12 ) ( * ( - 3 ) lam3n14 ) ( * Nl89var_Le_AFp_2_start^01 lam3n18 ) ) 0 ) ( = ( + ( * 1 lam3n1 ) ( * ( - 1 ) lam3n2 ) ( * ( - 1 ) lam3n4 ) ( * ( - 1 ) lam3n7 ) ( * 1 lam3n8 ) ( * ( - 1 ) lam3n10 ) ( * ( - 1 ) lam3n11 ) ( * ( - 4 ) lam3n12 ) ( * ( - 3 ) lam3n14 ) ( * Nl89var_Le_AFp_2_x^01 lam3n18 ) ) 0 ) ( = ( * Nl89var_Le_AFp_2_y^01 lam3n18 ) 0 ) ( = ( + ( * 1 lam3n7 ) ( * ( - 1 ) lam3n8 ) ( * ( - 1 ) lam3n9 ) ( * 1 lam3n10 ) ( * 1 lam3n11 ) ( * 3 lam3n12 ) ( * ( - 1 ) lam3n13 ) ( * 2 lam3n14 ) ( * Nl89var_e_AGAFp_0___rho_1_^01 lam3n18 ) ) 0 ) ( = ( + ( * 1 lam3n12 ) ( * Nl89var_e_AGAFp_0___rho_2_^01 lam3n18 ) ) 0 ) ( = ( + ( * ( - 1 ) lam3n0 ) ( * 1 lam3n4 ) ( * ( - 1 ) lam3n5 ) ( * ( - 1 ) lam3n7 ) ( * 1 lam3n10 ) ( * 1 lam3n11 ) ( * 1 lam3n12 ) ( * 1 lam3n13 ) ( * ( - 1 ) lam3n14 ) ( * 1 lam3n16 ) ( * Nl89var_e_AGAFp_0_p^01 lam3n18 ) ) 0 ) ( = ( + ( * ( - 1 ) lam3n2 ) ( * 1 lam3n10 ) ( * ( - 1 ) lam3n12 ) ( * Nl89var_e_AGAFp_0_rv_init^01 lam3n18 ) ) 0 ) ( = ( + ( * ( - 1 ) lam3n1 ) ( * 1 lam3n2 ) ( * 1 lam3n4 ) ( * ( - 1 ) lam3n8 ) ( * ( - 1 ) lam3n9 ) ( * 2 lam3n10 ) ( * 2 lam3n11 ) ( * 1 lam3n12 ) ( * ( - 1 ) lam3n13 ) ( * 5 lam3n14 ) ( * Nl89var_e_AGAFp_0_start^01 lam3n18 ) ) 0 ) ( = ( + ( * ( - 1 ) lam3n1 ) ( * 1 lam3n2 ) ( * ( - 1 ) lam3n5 ) ( * ( - 1 ) lam3n7 ) ( * ( - 1 ) lam3n8 ) ( * ( - 1 ) lam3n9 ) ( * 1 lam3n10 ) ( * 1 lam3n11 ) ( * 1 lam3n12 ) ( * ( - 1 ) lam3n13 ) ( * 5 lam3n14 ) ( * Nl89var_e_AGAFp_0_x^01 lam3n18 ) ) 0 ) ( = ( + ( * 1 lam3n12 ) ( * Nl89var_e_AGAFp_0_y^01 lam3n18 ) ) 0 ) ( = ( * 1 lam3n17 ) 0 ) ( = ( + ( * ( - 1 ) lam3n6 ) ( * ( - 1 ) lam3n15 ) ) 0 ) ( = ( * ( - 1 ) lam3n16 ) 0 ) ) ))
(check-sat)
(exit)
